p tw 73 81
1 2
2 13
3 4
4 5
5 6
6 7
7 8
7 9
8 70
9 10
10 11
11 12
12 14
13 24
14 15
14 70
15 16
16 17
17 18
18 19
19 20
20 21
21 22
22 23
22 70
23 25
24 35
25 26
26 27
27 28
28 29
29 30
30 31
30 70
31 32
32 33
33 34
34 36
35 46
36 37
37 38
38 39
38 49
39 40
40 41
40 49
41 42
42 43
43 44
44 45
45 47
46 57
47 48
48 49
48 70
49 50
50 51
51 52
52 53
53 54
54 55
54 63
55 56
56 58
57 68
58 59
59 60
60 61
61 62
62 63
63 64
64 65
65 66
66 67
67 69
68 72
69 70
70 71
72 73
72 9
73 3
